c Lingeling SAT Solver
c 
c Version ala b02aa1a04343558c4252b5f4a723be021964f652
c 
c Copyright (C) 2010-2012 Armin Biere JKU Linz Austria.
c All rights reserved.
c 
c released Sat Oct 13 14:05:26 CEST 2012
c compiled Sat Feb 16 02:48:12 EST 2013
c 
c gcc (Debian 4.4.5-8) 4.4.5
c -Wall -O3 -DNLGLOG -DNDEBUG -DNCHKSOL -DNLGLPICOSAT 
c Linux greencar2 2.6.32-5-amd64 x86_64
c 
c reading input file p24.cnf
c no embedded options
c found 'p cnf 224150 695164' header
c read 224150 variables, 695164 clauses, 1446308 literals in 0.0 seconds
c
c feature vars 224150
c feature lits.total 1446308
c feature lits.pos 770248
c feature lits.neg 676060
c feature clauses.total 695164
c feature clauses.unit 83556
c feature clauses.bin 489472
c feature clauses.trn 120736
c feature clauses.lrg 1400
c feature cog.val.min 1
c feature cog.val.avg 99897
c feature cog.val.max 215808
c feature cog.var.min 1
c feature cog.var.avg 112076
c feature cog.var.max 224149
c
c
c --abstime=0
c --acts=2
c --actavgmax=120
c --actstdmin=20
c --actstdmax=80
c --agile=23
c --bias=2
c --block=1
c --blkrtc=0
c --blkclslim=2000
c --blkocclim=2000
c --blkmaxeff=2147483647
c --blkmineff=10000000
c --blkreleff=20
c --card=0
c --cce=3
c --ccemaxeff=100000000
c --ccemineff=5000000
c --ccereleff=3
c --check=0
c --cgrclsr=1
c --cgrmaxority=20
c --cgrmaxeff=8000000
c --cgrmineff=200000
c --cgreleff=1
c --cgrexteq=1
c --cgrextand=1
c --cgrextunits=1
c --cgrextite=1
c --cgrextxor=1
c --cliff=1
c --cliffreleff=8
c --cliffmineff=10000000
c --cliffmaxeff=100000000
c --compact=0
c --decompose=1
c --defragint=10000000
c --defragfree=50
c --elim=1
c --elmrtc=0
c --elmblk=1
c --elmclslim=1000
c --elmocclim=1000
c --elmaxeff=100000000
c --elmineff=5000000
c --elmreleff=10
c --sleeponabort=0
c --exitonabort=0
c --flipping=1
c --flipint=2
c --flipdur=50
c --fliptop=1
c --force=0
c --gauss=1
c --gaussextrall=1
c --gaussmaxor=20
c --gaussexptrn=1
c --gaussmaxeff=50000000
c --gaussmineff=2000000
c --gaussreleff=2
c --gluescale=2
c --gluekeep=0
c --inprocessing=1
c --cintinc=10000
c --irrlim=20
c --lift=1
c --lftmaxeff=20000000
c --lftmineff=500000
c --lftreleff=6
c --lhbr=1
c --lkhd=1
c --clim=-1
c --mocint=1000
c --move=2
c --log=-1
c --otfs=1
c --phase=0
c --phaseneginit=0
c --plain=0
c --probe=1
c --prbasicmaxeff=100000000
c --prbasicmineff=1000000
c --prbasicreleff=10
c --prbasic=1
c --prbasicroundlim=9
c --queuemergelim=10000
c --queuefactor=833
c --queueinc=20
c --rmincpen=4
c --seed=0
c --smallirr=90
c --smallve=1
c --smallvevars=12
c --randec=1
c --randecint=1000
c --redfixed=0
c --redlbound=0
c --redlexpfac=10
c --redldoutfac=0
c --redloutinc=10000
c --redlinit=1000
c --redlinc=1000
c --redinoutinc=100
c --redlmininc=10
c --redlmaxinc=200
c --redlminrel=10
c --redlmaxrel=300
c --redlminabs=500
c --redlmaxabs=1000000
c --reduce=1
c --restart=2
c --restartint=5
c --rstinoutinc=110
c --simplify=1
c --simpdelay=100
c --simpen=4
c --sizepen=1000000
c --sizemaxpen=3
c --sortlits=0
c --syncint=111111
c --termint=122222
c --ternres=1
c --ternresrtc=0
c --trnrmineff=4000000
c --trnrmaxeff=40000000
c --trnreleff=10
c --transred=1
c --trdmineff=100000
c --trdmaxeff=2000000
c --trdreleff=10
c --unhide=1
c --unhdextstamp=1
c --unhdhbr=0
c --unhdmaxeff=20000000
c --unhdmineff=1000000
c --unhdreleff=4
c --unhdlnpr=3
c --unhdroundlim=5
c --verbose=1
c --witness=1
c [limits] no conflict limit
c [limits] simplification delayed by 100 to 100 conflicts
c 
c  seconds         irredundant          redundant clauses agility   height
c          variables clauses conflicts large binary ternary    glue         MB
c 
c *    0.0  123936   520150         0       0      0     0  63  0.0   0.0   42
c [cut-width] 172999, max 268565, min4 116508 at 75%, min10 32549 at 90%
c [decision-order] bias 1, old 1
c [queue-schedule-all-variables]
c s    0.0  123936   520150         0       0      0     0  63  0.0   0.0   42
c [simplification-1] limit hit at 100 conflicts
c [simplification-1] simplification penalty of 4
c [ternres-1] limit 4000000 with penalty 0 = 0 + 0
c [ternres-1] all 123936 free variables schedulable
c [ternres-1] 0 ternary resolvents (0 bin, 0 trn)
c [ternres-1] 32751 variables remain 26% (91185 retained)
c [gauss-1] limit 2000000 penalty 0 = 0 + 0
c [gauss-1] extracted 165811 xors of average arity 2.0
c [gauss-1] connected 331622 occurrences of 112538 variables (average 2.9)
c [gauss-1] limit 2000000 penalty 0 = 0 + 0
c d    0.8   57210   259684       100      98      0     0  30  6.5 362.9   21
c [gauss-1] exported 0 unary, 4 binary and 0 ternary equations
c G    0.8   57210   259684       100      98      0     0  30  6.5 362.9   21
c [basicprobe-1] limit 1000000 penalty 0 = 0 + 0
c [basicprobe-1-0] 3936 probes remain 7% after last round
c [basicprobe-1-0] removed 0 variables, found 4428 hbrs
c p    0.9   57210   259684       100      98   4428     0  30  6.5 362.9   25
c [cgrclsr-1] limit 200000 penalty 0 = 0 + 0
c [cgrclsr-1] all 57210 free variables schedulable
c [cgrclsr-1] fully completed congruence closure
c [lift-1] limit 500000 with penalty 0 = 0 + 0
c [lift-1] using 57210 probes 100%
c [lift-1] 57184 variables remain 100% (26 retained)
c [cliff-1] limit of 10000000 steps penalty 0 = 0 + 0
c [cliff-1] failed 0, lifted 1
c K    1.4   57209   259684       100      98  23127     0  30  6.5 362.9   25
c [unhide-1] limit 1000000 with penalty 0 = 0 + 0
c [unhide-1-1] 0 units, 0 failed, 21533 tauts, 0 hbrs, 73 literals
c u    1.5   57209   238147       100      98  23127     0  30  6.5 362.9   26
c [transred-1] limit 100000 with penalty 0 = 0 + 0
c t    1.6   57209   238146       100      98  23116     0  30  6.5 362.9   26
c [block-1] scheduling all variables this time
c [block-1] scheduled 57209 variables 100%
c [block-1] limit of 10000000 steps penalty 0 = 0 + 0
c [block-1] fully completed blocked clause elimination
c [block-1] transition to [ all 0 rem 0 ] state
c [block-1] eliminated 4400 blocked clauses
c k    1.7   57209   233746       100      98  23116  4400  30  6.5 362.9   21
c [cce-1] scheduling all variables this time
c [cce-1] limit of 10000000 steps penalty 0 = 0 + 0
c [cce-1] incomplete covered clause elimination 51745 not tried 90%
c [cce-1] transition to [ all 1 rem 1 ] state
c [cce-1] eliminated 101 covered clauses
c E    2.1   57204   233645       100      98  30037  4399  30  6.5 362.9   21
c [elim-1] scheduling all variables this time
c [elim-1] scheduled 57204 variables 100%
c [elim-1] limit of 5000000 steps penalty 0 = 0 + 0
c [elim-1] incomplete variable elimination 42662 not tried 75%
c [elim-1] transition to [ all 1 rem 1 ] state
c [elim-1] eliminated 6124 = 11% variables out of 57204
c e    3.0   51080   229859       100      51  10255   552  30  6.5 362.9   21
c [phase-1] phase bias: 461 positive 12%, 3535 negative 88%
c [simplification-1] removed 72856 variables 58%
c [simplification-1] limit increments divided by 30
c [simplification-1] arithmetic increase of conflict limit interval by 333
c [simplification-1] new irredundant limit 2274737
c [simplification-1] new conflict limit 433
c [simplification-1] simplification penalty reduced to 3
c R    3.1   51080   229859       160     110  10255   552  21  9.7 450.9   25
c R    3.2   51080   229859       404     322  10265   573   7  7.3 388.3   25
c [simplification-2] limit hit at 433 conflicts
c [simplification-2] simplification penalty of 3
c [ternres-2] limit 2000000 with penalty 1 = 1 + 0
c [ternres-2] 13510 schedulable variables 26%
c [ternres-2] 9 ternary resolvents (0 bin, 9 trn)
c [ternres-2] fully completed ternary resolution
c T    3.2   51080   229859       433     341  10267   590   5  7.3 389.6   26
c [gauss-2] limit 2000000 penalty 0 = 0 + 0
c [gauss-2] extracted 852 xors of average arity 3.0
c [gauss-2] connected 2556 occurrences of 1225 variables (average 2.1)
c [gauss-2] limit 2000000 penalty 0 = 0 + 0
c [gauss-2] fully completed
c [gauss-2] exported 0 unary, 0 binary and 0 ternary equations
c G    3.3   51080   229859       433     341  10267   590   5  7.3 389.6   21
c [basicprobe-2] limit 500000 penalty 1 = 1 + 0
c [basicprobe-2-0] 3971 probes remain 8% after last round
c [basicprobe-2-0] removed 0 variables, found 298 hbrs
c p    3.4   51080   229859       433     341  10565   589   5  7.3 389.6   25
c [cgrclsr-2] limit 100000 penalty 1 = 1 + 0
c [cgrclsr-2] all 51080 free variables schedulable
c [cgrclsr-2] fully completed congruence closure
c [lift-2] limit 250000 with penalty 1 = 1 + 0
c [lift-2] using 51055 probes 100%
c [lift-2] 51039 variables remain 100% (41 retained)
c [cliff-2] limit of 10000000 steps penalty 0 = 0 + 0
c [cliff-2] failed 0, lifted 0
c [unhide-2] limit 1000000 with penalty 0 = 0 + 0
c [unhide-2-2] 0 units, 0 failed, 1173 tauts, 0 hbrs, 132 literals
c u    4.0   51080   229854       433     339  10025   589   5  7.3 389.6   25
c [transred-3] limit 100000 with penalty 0 = 0 + 0
c t    4.0   51080   229854       433     339  10018   589   5  7.3 389.6   25
c [block-2] scheduling all variables this time
c [block-2] scheduled 51080 variables 100%
c [block-2] limit of 10000000 steps penalty 0 = 0 + 0
c [block-2] fully completed blocked clause elimination
c [block-2] transition to [ all 0 rem 0 ] state
c [block-2] eliminated 0 blocked clauses
c [cce-2] 48301 variables 95% will be scheduled this time
c [cce-2] limit of 10000000 steps penalty 0 = 0 + 0
c [cce-2] 47772 variables 94% remain to be tried next time
c [cce-2] transition to [ all 0 rem 1 ] state
c [cce-2] eliminated 288 covered clauses
c E    4.4   51080   229566       433     339  10325   589   5  7.3 389.6   21
c [elim-2] 42634 variables 83% will be scheduled this time
c [elim-2] scheduled 42634 variables 83%
c [elim-2] limit of 5000000 steps penalty 0 = 0 + 0
c [elim-2] 32629 variables 64% remain to be tried next time
c [elim-2] transition to [ all 0 rem 1 ] state
c [elim-2] eliminated 930 = 2% variables out of 51080
c e    5.4   50150   229225       433     334   7376   589   5  7.3 389.6   21
c [simplification-2] removed 930 variables 1%
c [simplification-2] no reduction of limit increments
c [simplification-2] arithmetic increase of conflict limit interval by 10000
c [simplification-2] new irredundant limit 2274737
c [simplification-2] new conflict limit 10766
c [simplification-2] simplification penalty reduced to 2
c R    5.6   50150   229225       974     830   7386   623   7  6.8 319.8   25
c -    5.7   50150   229225      1218     502   7403   674   5  6.2 273.2   25
c R    6.0   50150   229225      2268    1460   7431   728   7  7.2 278.9   26
c 
c  seconds         irredundant          redundant clauses agility   height
c          variables clauses conflicts large binary ternary    glue         MB
c 
c i    6.1   50149   229224      2530    1656   7446   768   4  7.0 259.4   26
c 1    6.2   50149   229224      2663    1786   7447   770   5  7.0 263.7   26
c 
c  seconds         irredundant          redundant clauses agility   height
c          variables clauses conflicts large binary ternary    glue         MB
c 
c blkd: 2 bces, 4400 removed, 1361555 resolutions, 3804852 steps
c blkd: 4400 blocking literals 1%, 0 pure
c cces: 2 cces, 346 eliminated, 346 ate 100%, 0 abce 0%
c cces: 11986 probed, 1 lifted, 5 failed
c clff: 2 cliffs, 1 lifted, 0 failed
c clff: 8178 decisions, 20022241 steps
c clls: 1 sat, 0 simp, 0 freeze, 0 melt
c clls: 2141472 add, 0 assume,, 0 deref, 0 failed
c clls: 0 cassume, 0 mosat
c coll: 12 gcs, 0 rescored clauses
c cgrs: 2 count, 300000 esteps, 68047 csteps
c cgrs: 0 eqs, 0 units
c cgrs: 0 matched (0 ands 0%, 0 xors 0%, 0 ites 0%)
c cgrs: 0 simplified (0 ands 0%, 0 xors 0%, 0 ites 0%)
c cgrs: 1997 extracted (1693 ands 85%, 304 xors 15%, 0 ites 0%)
c dcps: 3 decompositions, 66726 equivalent 30%
c decs: 47066 decision, 46 random 0.098%
c decs: 11434 flipped 24.294% (in 19 phases)
c elms: 2 elims, 7054 eliminated 3%
c elms: 7054 small 100%, 0 large 0%
c elms: 24639 tried small, 7054 succeeded 29%, 17585 failed 71%
c elms: 0 subsumed, 0 strengthened, 0 blocked
c elms: 313630 copies, 218444 resolutions, 649122 ipos
c elms: 0 subchks, 0 strchks
c frcs: 0 computed, 28.6 - 71.4 average min-cut range
c gaus: 2 extractions, 166663 extracted, 2.0 size, 3 max
c gaus: exported 0 units, 4 binary and 0 ternary equations
c gaus: 0 gc, 8000018 steps, 4000009 extr 50%, 2390737 elim 30%
c glue: 7.0 avg, 2.7 scaled avg
c glue: 0 maxredglue=15 (0%)
c lift: 2 phases, 252 probed (84 level1 33%, 168 level2 67%)
c lift: 0 units, 0 equivalences, 1 implications
c hbrs: 30938 hbrs = 30938 trn 100% + 0 lrg 0%, 2 sub 0%
c lrnd: 2637 clauses, 1667 uips 63%, 24.7 length, 7.0 glue
c ints: 158 luby (14711 steps), 0 inout (0 steps)
c mins: 65185 learned lits, 3% minimized
c move: moved 4746, 346 binary 7%, 4400 ternary 93%
c otfs: str 114 dyn (91 red, 23 irr) 26 drv 23%, 88 rst 77%
c otfs: sub 1 dyn (1 red, 0 irr)
c phas: 1 computed, 4159 set, 461 pos (11%), 3698 neg (89%)
c prbs: 2 basic, 1776 probed, 0 failed, 0 lifted
c prps: 12563935 props, 121 props/dec
c prps: 45% srch, 55% simp, 0% lkhd
c psns: 296031 searches, 37013 hits, 13% hit rate
c queu: 9521 new, 3445 del, 120 maximum priority
c queu: 6063 merged, 814 collected, 2 gcs
c queu: 2751 deprioritized, 22.7 lines on average
c reds: 1 count, 0 reset, 1 acts 100%, 0 exp 0%
c reds: 1 arithmetic 100%, 1 double 100%
c rmbd: 5 removed, 0 red 0%
c rsts: 137 restarts 87%, 20 skipped 13%
c rsts: 19 kept 13.9% average 48.3%
c simp: 2 count (0 ilim 0%, 0 plim 0%, 2 clim 100%)
c trnr: 2 count, 0 bin, 9 trn, 5134601 steps
c tops: 100221 fixed 45%, 1 iterations
c trds: 4 transitive reductions, 19 removed, 0 failed
c trds: 209 nodes, 295 edges, 201074 steps
c unhd: 2 count, 2 rounds, 2431617 steps
c unhd: 0 non-trivial sccs of average size 0.0
c unhd: 0 units, 0 bin, 0 trn, 0 lrg
c unhd: 0 failed, 0 stamp, 0 lits, 0 bin, 0 trn, 0 lrg
c unhd: 22706 tauts, 0 bin 0%, 1 trn 0%, 0 lrg 0%
c unhd: 22706 tauts, 22705 stamp 100%, 1173 red 5%
c unhd: 0 hbrs, 0 trn 0%, 0 lrg 0%, 0 red 0%
c unhd: 205 strd, 0 bin 0%, 0 trn 0%, 205 lrg 100%, 205 red 100%
c vars: 50149 remaining 22% and 174001 removed 78% out of 224150
c vars: 100221 fixed 45%, 7054 eliminated 3%, 66726 equivalent 30%
c vsts: 58229753 visits, 47% srch, 53% simp, 0% lkhd
c vsts: 4.8 search visits per propagation 10275.8 per conflict
c wchs: 9064145 pushed, 4137813 enlarged, 21 defrags
c 
c scaledglue  added       reduced       forcing      resolved     conflicts
c 
c all      2347 100       501 100      8511 100      4111 100       286 100
c 
c  0          0   0         0   0         0   0         0   0         0   0 
c  1         32   1         0   0        97   1        65   2         3   1 
c  2        856  36       114  23      3705  44      1347  33        76  27 
c  3        778  33<      243  49<     2893  34<     1285  31<       78  27<
c  4        516  22       109  22      1578  19      1154  28       116  41 
c  5        125   5        34   7       191   2       201   5        13   5 
c  6         29   1         1   0        31   0        42   1         0   0 
c  7          4   0         0   0         6   0         5   0         0   0 
c  8          7   0         0   0        10   0        12   0         0   0 
c  9          0   0         0   0         0   0         0   0         0   0 
c 10          0   0         0   0         0   0         0   0         0   0 
c 11          0   0         0   0         0   0         0   0         0   0 
c 12          0   0         0   0         0   0         0   0         0   0 
c 13          0   0         0   0         0   0         0   0         0   0 
c 14          0   0         0   0         0   0         0   0         0   0 
c 15          0   0         0   0         0   0         0   0         0   0 
c 
c avg             3.0           3.1           2.8           3.1           3.2
c std             1.0           0.8           0.9           1.0           0.9
c 
c 47066 decisions, 2663 conflicts, 430.9 conflicts/sec
c 12563935 propagations, 2.0 megaprops/sec
c 6.2 seconds, 48.5 MB
c 
c    0.116   2% analysis
c    0.252   4% block
c    0.004   0% bump
c    0.000   0% card
c    0.712  12% cce
c    0.652  11% cliff
c    0.012   0% cutwidth
c    0.028   0% decide
c    0.000   0% force
c    0.520   8% gc
c    0.180   3% cgrclsr
c    0.304   5% decomp
c    0.152   2% defrag
c    1.880  30% elim
c    0.768  12% gauss
c    0.172   3% lift
c    0.032   1% mincls
c    0.024   0% phase
c    0.084   1% probe
c    0.004   0% reduce
c    0.092   1% restart
c    0.072   1% ternres
c    0.008   0% transred
c    0.212   3% unhide
c ==================================
c    0.016   0% preprocessing     0%
c    5.272  85% inprocessing    100%
c ==================================
c    5.288  86% simplifying
c    0.000   0% lookahead
c    0.884  14% search
c ==================================
c    6.180 100% all
c
s SATISFIABLE
